(set-logic ALL)
(set-option :fmf-bound true)
(set-option :produce-models true)
(declare-sort Object 0)

(declare-fun var95 (Bool) Bool)
(declare-fun var77 (Bool) Bool)
(declare-fun var81 (Bool) Bool)
(declare-fun var41 (Bool) Bool)
(declare-fun var31 (Bool) Bool)
(declare-fun var35 (Bool) Bool)
(declare-fun var37 (Bool) Bool)
(declare-fun var13 (Bool) Bool)
(declare-fun var38 (Bool) Bool)
(declare-fun var9 (Bool) Bool)
(declare-fun var25 (Bool) Bool)
(declare-fun var2 (Bool) Bool)
(declare-fun var39 (Bool) Bool)
(declare-fun var40 (Bool) Bool)
(declare-fun var24 (Bool) Bool)
(declare-fun var68 (Bool) Bool)
(declare-fun var36 (Bool) Bool)
(declare-fun var1 (Bool) Bool)
(declare-fun var83 (Bool) Bool)
(declare-fun var10 (Bool) Bool)
(declare-fun var63 (Bool) Bool)
(declare-fun var5 (Bool) Bool)
(declare-fun var20 (Bool) Bool)
(declare-fun var57 (Bool) Bool)
(declare-fun var8 (Bool) Bool)
(declare-fun var86 (Bool) Bool)
(declare-fun var51 (Bool) Bool)
(declare-fun var43 (Bool) Bool)
(declare-fun var26 (Bool) Bool)
(declare-fun var69 (Bool) Bool)
(declare-fun var91 (Bool) Bool)
(declare-fun var84 (Bool) Bool)
(declare-fun var89 (Bool) Bool)
(declare-fun var30 (Bool) Bool)
(declare-fun var48 (Bool) Bool)
(declare-fun var32 (Bool) Bool)
(declare-fun var72 (Bool) Bool)
(declare-fun var66 (Bool) Bool)
(declare-fun var23 (Bool) Bool)
(declare-fun var11 (Bool) Bool)
(declare-fun var18 (Bool) Bool)
(declare-fun var47 (Bool) Bool)
(declare-fun var17 (Bool) Bool)
(declare-fun var87 (Bool) Bool)
(declare-fun var67 (Bool) Bool)
(declare-fun var62 (Bool) Bool)
(declare-fun var54 (Bool) Bool)
(declare-fun var59 (Bool) Bool)
(declare-fun var16 (Bool) Bool)
(declare-fun var45 (Bool) Bool)
(declare-fun var79 (Bool) Bool)
(declare-fun var85 (Bool) Bool)
(declare-fun var4 (Bool) Bool)
(declare-fun var46 (Bool) Bool)
(declare-fun var7 (Bool) Bool)
(declare-fun var76 (Bool) Bool)
(declare-fun var52 (Bool) Bool)
(declare-fun var74 (Bool) Bool)
(declare-fun var49 (Bool) Bool)
(declare-fun var53 (Bool) Bool)
(declare-fun var90 (Bool) Bool)
(declare-fun var98 (Bool) Bool)
(declare-fun var34 (Bool) Bool)
(declare-fun var28 (Bool) Bool)
(declare-fun var75 (Bool) Bool)
(declare-fun var96 (Bool) Bool)
(declare-fun var58 (Bool) Bool)
(declare-fun var12 (Bool) Bool)
(declare-fun var19 (Bool) Bool)
(declare-fun var55 (Bool) Bool)
(declare-fun var92 (Bool) Bool)
(declare-fun var88 (Bool) Bool)
(declare-fun var65 (Bool) Bool)
(declare-fun var27 (Bool) Bool)
(declare-fun var100 (Bool) Bool)
(declare-fun var78 (Bool) Bool)
(declare-fun var3 (Bool) Bool)
(declare-fun var60 (Bool) Bool)
(declare-fun var15 (Bool) Bool)
(declare-fun var94 (Bool) Bool)
(declare-fun var42 (Bool) Bool)
(declare-fun var97 (Bool) Bool)
(declare-fun var21 (Bool) Bool)
(declare-fun var82 (Bool) Bool)
(declare-fun var6 (Bool) Bool)
(declare-fun var29 (Bool) Bool)
(declare-fun var56 (Bool) Bool)
(declare-fun var64 (Bool) Bool)
(declare-fun var73 (Bool) Bool)
(declare-fun var80 (Bool) Bool)
(declare-fun var22 (Bool) Bool)
(declare-fun var14 (Bool) Bool)
(declare-fun var50 (Bool) Bool)
(declare-fun var61 (Bool) Bool)
(declare-fun var70 (Bool) Bool)
(declare-fun var99 (Bool) Bool)
(declare-fun var44 (Bool) Bool)
(declare-fun var33 (Bool) Bool)
(declare-fun var71 (Bool) Bool)
(declare-fun var93 (Bool) Bool)
(declare-fun GTE (Bool Bool) Bool)
(define-fun implies ((p Bool)(q Bool)) Bool (or (not p) q))

(assert (forall ((x Bool)) (not(or (var95 x) (var77 x)))))
(assert (forall ((x Bool)) (not(or (not(var81 x)) (not(var41 x))))))
(assert (forall ((x Bool)) (not(or (not(var31 x)) (not(var35 x))))))
(assert (forall ((x Bool)) (not(or (var37 x) (var13 x)))))
(assert (forall ((x Bool)) (not(or (not(var38 x)) (not(var9 x))))))
(assert (forall ((x Bool)) (not(or (var25 x) (var2 x)))))
(assert (forall ((x Bool)) (not(or (var39 x) (var40 x)))))
(assert (forall ((x Bool)) (not(or (not(var24 x)) (var68 x)))))
(assert (forall ((x Bool)) (not(or (not(var36 x)) (var1 x)))))
(assert (forall ((x Bool)) (not(or (var83 x) (not(var10 x))))))
(assert (forall ((x Bool)) (not(or (var63 x) (not(var5 x))))))
(assert (forall ((x Bool)) (not(or (var20 x) (not(var57 x))))))
(assert (forall ((x Bool)) (not(or (var8 x) (var86 x)))))
(assert (forall ((x Bool)) (not(or (not(var51 x)) (var43 x)))))
(assert (forall ((x Bool)) (not(or (not(var26 x)) (var69 x)))))
(assert (forall ((x Bool)) (not(or (var91 x) (var84 x)))))
(assert (forall ((x Bool)) (not(or (var89 x) (not(var30 x))))))
(assert (forall ((x Bool)) (not(or (not(var48 x)) (not(var32 x))))))
(assert (forall ((x Bool)) (not(or (not(var72 x)) (not(var66 x))))))
(assert (forall ((x Bool)) (not(or (not(var23 x)) (not(var11 x))))))
(assert (forall ((x Bool)) (not(or (not(var18 x)) (var47 x)))))
(assert (forall ((x Bool)) (not(or (not(var17 x)) (var87 x)))))
(assert (forall ((x Bool)) (not(or (var67 x) (not(var62 x))))))
(assert (forall ((x Bool)) (not(or (not(var54 x)) (not(var59 x))))))
(assert (forall ((x Bool)) (not(or (var16 x) (var45 x)))))
(assert (forall ((x Bool))  (exists ((x1 Bool)) (and(GTE x x1)  (implies (not(var79 x1)) (not(var85 x)))))))
(assert (forall ((x Bool))  (exists ((x1 Bool)) (and(GTE x x1)  (implies (not(var4 x1)) (not(var46 x)))))))
(assert (forall ((x Bool))  (exists ((x1 Bool)) (and(GTE x x1)  (implies (not(var7 x1)) (var76 x))))))
(assert (forall ((x Bool))  (exists ((x1 Bool)) (and(GTE x x1)  (implies (var52 x1) (var74 x))))))
(assert (forall ((x Bool))  (exists ((x1 Bool)) (and(GTE x x1)  (implies (not(var49 x1)) (var53 x))))))
(assert (forall ((x Bool))  (exists ((x1 Bool)) (and(GTE x x1)  (implies (not(var90 x1)) (not(var98 x)))))))
(assert (forall ((x Bool))  (exists ((x1 Bool)) (and(GTE x x1)  (implies (var34 x1) (not(var28 x)))))))
(assert (forall ((x Bool))  (exists ((x1 Bool)) (and(GTE x x1)  (implies (var75 x1) (var96 x))))))
(assert (forall ((x Bool))  (exists ((x1 Bool)) (and(GTE x x1)  (implies (not(var58 x1)) (not(var12 x)))))))
(assert (forall ((x Bool))  (exists ((x1 Bool)) (and(GTE x x1)  (implies (not(var19 x1)) (not(var55 x)))))))
(assert (forall ((x Bool))  (exists ((x1 Bool)) (and(GTE x x1)  (implies (var92 x1) (not(var88 x)))))))
(assert (forall ((x Bool))  (exists ((x1 Bool)) (and(GTE x x1)  (implies (var65 x1) (var27 x))))))
(assert (forall ((x Bool))  (exists ((x1 Bool)) (and(GTE x x1)  (implies (not(var100 x1)) (not(var78 x)))))))
(assert (forall ((x Bool))  (exists ((x1 Bool)) (and(GTE x x1)  (implies (var3 x1) (var60 x))))))
(assert (forall ((x Bool))  (exists ((x1 Bool)) (and(GTE x x1)  (implies (not(var15 x1)) (not(var94 x)))))))
(assert (forall ((x Bool))  (exists ((x1 Bool)) (and(GTE x x1)  (implies (var42 x1) (var97 x))))))
(assert (forall ((x Bool))  (exists ((x1 Bool)) (and(GTE x x1)  (implies (var21 x1) (var82 x))))))
(assert (forall ((x Bool))  (exists ((x1 Bool)) (and(GTE x x1)  (implies (not(var6 x1)) (var29 x))))))
(assert (forall ((x Bool))  (exists ((x1 Bool)) (and(GTE x x1)  (implies (not(var56 x1)) (not(var64 x)))))))
(assert (forall ((x Bool))  (exists ((x1 Bool)) (and(GTE x x1)  (implies (not(var73 x1)) (var80 x))))))
(assert (forall ((x Bool))  (exists ((x1 Bool)) (and(GTE x x1)  (implies (var22 x1) (not(var14 x)))))))
(assert (forall ((x Bool))  (exists ((x1 Bool)) (and(GTE x x1)  (implies (not(var50 x1)) (var61 x))))))
(assert (forall ((x Bool))  (exists ((x1 Bool)) (and(GTE x x1)  (implies (var70 x1) (var99 x))))))
(assert (forall ((x Bool))  (exists ((x1 Bool)) (and(GTE x x1)  (implies (var44 x1) (not(var33 x)))))))
(assert (forall ((x Bool))  (exists ((x1 Bool)) (and(GTE x x1)  (implies (not(var71 x1)) (var93 x))))))
(check-sat)
(get-model)
